(set-option :sets-proxy-lemmas true)
(set-option :sygus-inference true)
(set-option :conjecture-gen true)
(set-option :conjecture-filter-active-terms false)
(set-option :sets-infer-as-lemmas false)
(declare-fun a () (Set Int))
(declare-fun b () (Set Int))
(declare-fun c () (Set Int))
(assert (>= (set.card (set.minus b a)) 1 (set.card (set.minus c b))))
(check-sat)
